NAME: australia-road-km-n3-k1
TYPE: CVRP
DIMENSION: 3
EDGE_WEIGHT_TYPE: EXPLICIT
EDGE_WEIGHT_FORMAT: FULL_MATRIX
EDGE_WEIGHT_UNIT_OF_MEASUREMENT: km
CAPACITY: 3
NODE_COORD_SECTION
1 -27.456195 153.033586
2 -27.3979 153.058614
3 -27.444459 153.043787
EDGE_WEIGHT_SECTION
0.000 8.402 3.406 
14.429 0.000 6.536 
9.018 6.731 0.000 
DEMAND_SECTION
1 0
2 1
3 1
DEPOT_SECTION
1
-1
EOF
